DIMENSION: 22
EDGE_WEIGHT_TYPE: EXPLICIT
EDGE_WEIGHT_FORMAT: FULL_MATRIX
EDGE_WEIGHT_SECTION:
32767 32767 32767 32767 32767 32767 32767 86 86 32767 32767 32767 59 32767 32767 61 18 32767 32767 32767 32767 38 
32767 32767 32767 32767 96 32767 32767 42 32767 32767 32767 32767 32767 32767 32767 49 32767 32767 32767 32767 32767 61 
32767 32767 32767 72 32767 32767 83 32767 32767 32767 32767 36 32767 32767 30 32767 32767 32767 32767 38 32767 32767 
32767 32767 72 32767 32767 5 32767 32767 32767 32767 85 32767 32767 32767 32767 32767 32767 32767 64 32767 32767 32767 
32767 96 32767 32767 32767 32767 17 32767 32767 32767 32767 32767 32767 77 32767 32767 21 50 32767 32767 32767 32767 
32767 32767 32767 5 32767 32767 32767 32767 32767 2 18 32767 32767 32767 32767 32767 32767 32767 36 39 32767 32767 
32767 32767 83 32767 17 32767 32767 81 50 32767 52 55 32767 32767 32767 48 32767 51 12 32767 47 32767 
86 42 32767 32767 32767 32767 81 32767 32767 32767 6 21 32767 32767 61 32767 32767 32767 32767 32767 32767 32767 
86 32767 32767 32767 32767 32767 50 32767 32767 37 32767 32767 32767 32767 32767 52 12 32767 32767 32767 32767 32767 
32767 32767 32767 32767 32767 2 32767 32767 37 32767 32767 32767 32767 32767 20 32767 32767 32767 62 29 8 32767 
32767 32767 32767 85 32767 18 52 6 32767 32767 32767 32767 32767 90 41 32767 32767 32767 14 32767 32767 32767 
32767 32767 36 32767 32767 32767 55 21 32767 32767 32767 32767 32767 32767 75 32767 32767 32767 32767 32767 38 34 
59 32767 32767 32767 32767 32767 32767 32767 32767 32767 32767 32767 32767 32767 32767 32767 32767 23 32767 32767 32767 32767 
32767 32767 32767 32767 77 32767 32767 32767 32767 32767 90 32767 32767 32767 32767 32767 48 32767 32767 32767 32767 32767 
32767 32767 30 32767 32767 32767 32767 61 32767 20 41 75 32767 32767 32767 32767 32767 31 32767 32767 32767 99 
61 49 32767 32767 32767 32767 48 32767 52 32767 32767 32767 32767 32767 32767 32767 32767 32767 32767 8 32767 32767 
18 32767 32767 32767 21 32767 32767 32767 12 32767 32767 32767 32767 48 32767 32767 32767 99 32767 32767 32767 32767 
32767 32767 32767 32767 50 32767 51 32767 32767 32767 32767 32767 23 32767 31 32767 99 32767 32767 33 32767 25 
32767 32767 32767 64 32767 36 12 32767 32767 62 14 32767 32767 32767 32767 32767 32767 32767 32767 18 32767 59 
32767 32767 38 32767 32767 39 32767 32767 32767 29 32767 32767 32767 32767 32767 8 32767 33 18 32767 32767 32767 
32767 32767 32767 32767 32767 32767 47 32767 32767 8 32767 38 32767 32767 32767 32767 32767 32767 32767 32767 32767 52 
38 61 32767 32767 32767 32767 32767 32767 32767 32767 32767 34 32767 32767 99 32767 32767 25 59 32767 52 32767 
EOF